GO.ID Term Annotated Significant Expected weightFisher p.adj
GO:1902358 sulfate transmembrane transport 9 9 4.37 0.0015 1
GO:0006805 xenobiotic metabolic process 65 47 31.55 0.0017 1
GO:0050808 synapse organization 290 181 140.76 0.0018 1
GO:0016266 O-glycan processing 32 24 15.53 0.0021 1
GO:0036158 outer dynein arm assembly 12 11 5.82 0.0023 1
GO:0030148 sphingolipid biosynthetic process 47 30 22.81 0.0030 1
GO:0099509 regulation of presynaptic cytosolic calc... 11 10 5.34 0.0031 1
GO:0007601 visual perception 150 93 72.81 0.0042 1
GO:0009566 fertilization 96 62 46.6 0.0044 1
GO:1902476 chloride transmembrane transport 77 49 37.38 0.0053 1
GO:0007528 neuromuscular junction development 35 24 16.99 0.0057 1
GO:0007613 memory 88 53 42.71 0.0060 1
GO:0019532 oxalate transport 9 9 4.37 0.0063 1
GO:0007605 sensory perception of sound 106 66 51.45 0.0066 1
GO:0007628 adult walking behavior 19 15 9.22 0.0067 1
GO:0006629 lipid metabolic process 667 356 323.76 0.0069 1
GO:0045214 sarcomere organization 33 23 16.02 0.0078 1
GO:0030317 flagellated sperm motility 54 34 26.21 0.0083 1
GO:0034220 ion transmembrane transport 715 402 347.06 0.0083 1
GO:0050427 3'-phosphoadenosine 5'-phosphosulfate me... 13 12 6.31 0.0084 1
GO:0090383 phagosome acidification 10 9 4.85 0.0084 1
GO:0060037 pharyngeal system development 18 15 8.74 0.0084 1
GO:0007409 axonogenesis 334 189 162.12 0.0088 1
GO:0007399 nervous system development 1494 778 725.18 0.0090 1
GO:0061337 cardiac conduction 119 68 57.76 0.0094 1
GO:0071805 potassium ion transmembrane transport 165 97 80.09 0.0097 1
GO:0007416 synapse assembly 136 88 66.01 0.0124 1
GO:0060411 cardiac septum morphogenesis 54 32 26.21 0.0130 1
GO:0009651 response to salt stress 12 11 5.82 0.0130 1
GO:0032229 negative regulation of synaptic transmis... 6 6 2.91 0.0131 1
GO:0030240 skeletal muscle thin filament assembly 6 6 2.91 0.0131 1
GO:0006636 unsaturated fatty acid biosynthetic proc... 37 20 17.96 0.0131 1
GO:0060395 SMAD protein signal transduction 49 30 23.78 0.0132 1
GO:0022407 regulation of cell-cell adhesion 291 108 141.25 0.0139 1
GO:0035082 axoneme assembly 41 35 19.9 0.0146 1
GO:0048813 dendrite morphogenesis 87 50 42.23 0.0148 1
GO:0031424 keratinization 55 32 26.7 0.0149 1
GO:0006749 glutathione metabolic process 20 14 9.71 0.0150 1
GO:0048172 regulation of short-term neuronal synapt... 12 10 5.82 0.0150 1
GO:2001234 negative regulation of apoptotic signali... 104 50 50.48 0.0151 1
GO:0060285 cilium-dependent cell motility 67 46 32.52 0.0154 1
GO:0036159 inner dynein arm assembly 9 8 4.37 0.0157 1
GO:1902600 proton transmembrane transport 53 32 25.73 0.0167 1
GO:0007156 homophilic cell adhesion via plasma memb... 147 85 71.35 0.0172 1
GO:0050908 detection of light stimulus involved in ... 17 13 8.25 0.0183 1
GO:0014047 glutamate secretion 37 23 17.96 0.0188 1
GO:0009952 anterior/posterior pattern specification 157 94 76.21 0.0192 1
GO:0034765 regulation of ion transmembrane transpor... 351 184 170.37 0.0196 1
GO:0060079 excitatory postsynaptic potential 75 46 36.4 0.0207 1
GO:0006886 intracellular protein transport 345 151 167.46 0.0210 1
